c 1 NFa_1
c 2 NFa_2
c 3 NFa_3
c 4 NFb_1
c 5 NFb_2
c 6 NFb_3
c 7 NFc_1
c 8 NFc_2
c 9 NFc_3
c 10 NFd_1
c 11 NFd_2
c 12 NFd_3
c 13 NFe_1
c 14 NFe_2
c 15 NFe_3
c 16 NFe_4
c 17 NFf_1
c 18 NFf_2
c 19 NFf_3
c 20 NFf_4
c 21 Fa boolean
c 22 Tseitin_Variable_1
c 23 Tseitin_Variable_2
c 24 Tseitin_Variable_3
c 25 Tseitin_Variable_4
c 26 Tseitin_Variable_5
c 27 Tseitin_Variable_6
c 28 Tseitin_Variable_7
c 29 Tseitin_Variable_8
c 30 Tseitin_Variable_9
c 31 Tseitin_Variable_10
c 32 Tseitin_Variable_11
c 33 Tseitin_Variable_12
c 34 Tseitin_Variable_13
c 35 Tseitin_Variable_14
c 36 Tseitin_Variable_15
c 37 Tseitin_Variable_16
c 38 Tseitin_Variable_17
c 39 Tseitin_Variable_18
p cnf 39 110
-3 0
3 -2 0
5 -6 0
6 -5 0
-7 21 0
-8 21 0
9 21 0
7 8 -9 -21 0
21 0
-12 0
-15 22 0
-17 22 0
14 22 0
16 22 0
15 17 -14 -16 -22 0
14 -16 -22 0
15 -16 -22 0
17 -16 -22 0
14 -17 -22 0
15 -17 -22 0
16 -17 -22 0
14 -22 0
14 15 -22 0
14 16 -22 0
14 17 -22 0
15 -22 0
15 16 -22 0
15 17 -22 0
4 -7 -23 0
7 -4 -23 0
23 -4 -7 0
7 4 23 0
18 24 0
1 23 24 0
1 -18 -24 0
-18 -23 -24 0
2 25 0
-23 25 0
-2 23 -25 0
4 26 0
7 26 0
-4 -7 -26 0
5 8 26 -27 0
5 -8 -26 -27 0
-5 8 -26 -27 0
-5 -8 26 -27 0
27 -5 -8 -26 0
-5 8 26 27 0
5 -8 26 27 0
5 8 -26 27 0
1 28 0
-27 28 0
1 27 -28 0
-25 28 -29 0
25 -28 -29 0
-25 -28 29 0
25 28 29 0
-29 -19 -30 0
24 -19 -30 0
24 -29 -30 0
19 29 30 0
19 -24 30 0
-24 29 30 0
-28 31 0
-25 31 0
25 28 -31 0
2 32 0
-27 32 0
-2 27 -32 0
5 8 -33 0
5 -26 -33 0
8 -26 -33 0
33 -5 -8 0
-5 26 33 0
-8 26 33 0
6 -9 33 -34 0
6 9 -33 -34 0
-6 -9 -33 -34 0
-6 9 33 -34 0
-6 9 -33 34 0
-6 -9 33 34 0
6 9 33 34 0
6 -9 -33 34 0
1 35 0
-34 35 0
1 34 -35 0
-32 35 -36 0
32 -35 -36 0
-32 -35 36 0
32 35 36 0
3 37 0
-23 37 0
-3 23 -37 0
-31 36 37 -38 0
31 -36 37 -38 0
31 36 -37 -38 0
-31 -36 -37 -38 0
31 -36 -37 38 0
-31 36 -37 38 0
-31 -36 37 38 0
31 36 37 38 0
20 -38 0
30 -38 0
20 30 0
-22 -2 0
-22 -3 0
1 -22 0
10 0
11 0
13 0